c random cnf
p cnf 50 50
33 39 0
-5 -24 0
46 48 0
-15 -34 0
-16 -22 0
-45 -48 0
-3 -50 0
21 -28 0
18 -39 0
-15 47 0
30 -31 0
-27 36 0
35 50 0
37 45 0
-11 -41 0
21 49 0
24 37 0
23 -41 0
31 -34 0
23 -43 0
-1 -42 0
17 27 0
36 -50 0
5 -26 0
12 -17 0
8 38 0
-12 46 0
44 -47 0
6 12 0
-48 50 0
7 -43 0
36 45 0
29 -39 0
19 46 0
-33 47 0
-17 -34 0
-8 39 0
12 26 0
1 41 0
-16 33 0
-19 -38 0
13 20 0
20 22 0
4 -38 0
-12 30 0
11 -34 0
-35 -45 0
-9 12 0
-19 21 0
38 -49 0
